Copyright (C) 2013-2015, Filipe Brandao
Build (method = -2)
  #dp: 299271
  Step-3' Graph: 962 vertices and 114652 arcs (2.16s)
  Step-4' Graph: 962 vertices and 114652 arcs (2.20s)
  #V4/#V3 = 1.00
  #A4/#A3 = 1.00
Ready! (2.20s)
Optimize a model with 1147 rows, 114653 columns and 342040 nonzeros
Presolve removed 2 rows and 9 columns
Presolve time: 0.65s
Presolved: 1145 rows, 114644 columns, 342022 nonzeros
Variable types: 0 continuous, 114644 integer (25839 binary)
Optimize a model with 1145 rows, 114644 columns and 342022 nonzeros
Presolved: 1145 rows, 114644 columns, 342022 nonzeros

Root barrier log...

Ordering time: 0.02s

Barrier statistics:
 AA' NZ     : 2.381e+05
 Factor NZ  : 4.565e+05 (roughly 50 MBytes of memory)
 Factor Ops : 2.443e+08 (less than 1 second per iteration)
 Threads    : 1

                  Objective                Residual
Iter       Primal          Dual         Primal    Dual     Compl     Time
   0   1.11324069e+05 -7.61258613e+05  1.47e+06 7.82e-02  2.96e+02     0s
   1   3.10710751e+04 -4.35634197e+05  2.11e+05 6.33e-02  4.37e+01     0s
   2   7.24140204e+03 -2.45292918e+05  2.74e+04 2.62e-02  6.42e+00     0s
   3   5.60912224e+03 -1.59842343e+05  6.45e+03 8.19e-03  1.83e+00     0s
   4   5.76590881e+03 -1.10111622e+05  1.22e+03 4.17e-03  6.83e-01     1s
   5   5.01039074e+03 -6.56823985e+04  5.28e+02 2.34e-03  3.74e-01     1s
   6   3.86638515e+03 -4.73440705e+04  3.29e+02 1.91e-03  2.63e-01     1s
   7   3.34952044e+03 -3.76585185e+04  2.46e+02 1.33e-03  2.08e-01     1s
   8   2.69434319e+03 -1.81858190e+04  1.54e+02 6.07e-04  1.07e-01     1s
   9   2.40013522e+03 -1.07810629e+04  1.22e+02 3.41e-04  6.80e-02     1s
  10   2.30109622e+03 -1.01033513e+04  1.13e+02 3.19e-04  6.37e-02     1s
  11   1.99913052e+03 -8.05992967e+03  9.10e+01 2.51e-04  5.09e-02     1s
  12   1.57278604e+03 -6.23664853e+03  5.70e+01 1.90e-04  3.80e-02     1s
  13   1.29507283e+03 -4.85839216e+03  3.83e+01 1.44e-04  2.92e-02     1s
  14   1.16222756e+03 -4.08711405e+03  3.05e+01 1.18e-04  2.46e-02     1s
  15   1.11877919e+03 -3.69329912e+03  2.84e+01 9.93e-05  2.25e-02     1s
  16   9.45878421e+02 -3.11926504e+03  1.84e+01 7.92e-05  1.86e-02     1s
  17   8.32120307e+02 -2.26134078e+03  1.43e+01 4.38e-05  1.41e-02     1s
  18   7.42861827e+02 -2.06246618e+03  1.20e+01 3.72e-05  1.27e-02     1s
  19   6.85590185e+02 -1.75952858e+03  1.06e+01 2.75e-05  1.11e-02     2s
  20   6.26948831e+02 -1.18582583e+03  8.79e+00 1.03e-05  8.24e-03     2s
  21   5.70471991e+02 -1.02408462e+03  6.02e+00 6.92e-06  7.17e-03     2s
  22   5.28139897e+02 -9.17984418e+02  5.49e+00 4.02e-06  6.50e-03     2s
  23   4.77949521e+02 -7.57174466e+02  4.87e+00 6.78e-16  5.55e-03     2s
  24   4.45673545e+02 -6.47242918e+02  4.54e+00 7.12e-16  4.91e-03     2s
  25   3.62009778e+02 -5.07794692e+02  3.54e+00 6.23e-16  3.90e-03     2s
  26   2.82619405e+02 -4.51709824e+02  2.66e+00 6.66e-16  3.28e-03     2s
  27   2.37166927e+02 -3.81701020e+02  2.17e+00 6.66e-16  2.76e-03     2s
  28   2.19305220e+02 -3.40588090e+02  1.98e+00 7.29e-16  2.49e-03     2s
  29   2.13383398e+02 -2.46933925e+02  1.90e+00 6.41e-16  2.05e-03     2s
  30   1.92501453e+02 -2.19278907e+02  1.69e+00 6.69e-16  1.83e-03     2s
  31   1.79478322e+02 -1.92308119e+02  1.56e+00 6.79e-16  1.66e-03     2s
  32   1.40375210e+02 -1.48866799e+02  1.15e+00 6.56e-16  1.28e-03     2s
  33   1.16304436e+02 -1.18110337e+02  8.87e-01 7.17e-16  1.04e-03     2s
  34   1.00879034e+02 -9.11342100e+01  7.06e-01 6.89e-16  8.49e-04     3s
  35   9.05176856e+01 -5.63934095e+01  5.78e-01 6.89e-16  6.49e-04     3s
  36   6.92464079e+01 -8.40371733e+00  3.00e-01 5.17e-16  3.42e-04     3s
  37   6.52377857e+01  4.21336328e+00  2.43e-01 5.21e-16  2.68e-04     3s
  38   6.15470463e+01  1.65300622e+01  1.78e-01 5.31e-16  1.98e-04     3s
  39   5.96035038e+01  2.36963379e+01  1.52e-01 5.39e-16  1.58e-04     3s
  40   5.80082851e+01  3.02153633e+01  1.21e-01 5.33e-16  1.22e-04     3s
  41   5.66345260e+01  3.50769051e+01  8.84e-02 5.13e-16  9.44e-05     3s
  42   5.56277977e+01  4.03811840e+01  6.21e-02 4.88e-16  6.67e-05     3s
  43   5.54909778e+01  4.25206360e+01  5.25e-02 5.78e-16  5.67e-05     3s
  44   5.51924325e+01  4.75308826e+01  3.84e-02 4.28e-16  3.35e-05     3s
  45   5.47546771e+01  5.15086977e+01  1.65e-02 4.19e-16  1.42e-05     3s
  46   5.46324998e+01  5.28829761e+01  9.88e-03 4.05e-16  7.64e-06     3s
  47   5.46102889e+01  5.33510345e+01  8.68e-03 4.29e-16  5.50e-06     3s
  48   5.45804021e+01  5.35170940e+01  7.05e-03 5.36e-16  4.64e-06     4s
  49   5.45063672e+01  5.42111652e+01  2.92e-03 3.93e-16  1.29e-06     4s
  50   5.44571615e+01  5.44453847e+01  1.10e-12 4.52e-16  5.13e-08     4s
  51   5.44570002e+01  5.44569884e+01  5.66e-13 3.88e-16  5.14e-11     4s
  52   5.44570000e+01  5.44570000e+01  2.75e-13 4.44e-16  5.80e-17     4s

Barrier solved model in 52 iterations and 3.79 seconds
Optimal objective 5.44570000e+01


Root crossover log...

       1 DPushes remaining with DInf 0.0000000e+00                 5s

  109435 PPushes remaining with PInf 0.0000000e+00                 5s
       0 PPushes remaining with PInf 0.0000000e+00                10s

  Push phase complete: Pinf 0.0000000e+00, Dinf 7.5818236e-01     10s


Root simplex log...

Iteration    Objective       Primal Inf.    Dual Inf.      Time
  109438    5.4457000e+01   0.000000e+00   0.000000e+00     10s
  109438    5.4457000e+01   0.000000e+00   0.000000e+00     10s

Root relaxation: objective 5.445700e+01, 109438 iterations, 9.96 seconds
Total elapsed time = 26.78s
Total elapsed time = 39.72s
Total elapsed time = 49.37s
Total elapsed time = 59.76s

    Nodes    |    Current Node    |     Objective Bounds      |     Work
 Expl Unexpl |  Obj  Depth IntInf | Incumbent    BestBd   Gap | It/Node Time

     0     0   54.45700    0  293          -   54.45700     -      -   60s

Explored 0 nodes (164884 simplex iterations) in 60.02 seconds
Thread count was 1 (of 4 available processors)

Time limit reached
Best objective -, best bound 5.500000000000e+01, gap -
Preprocessing time: 2.42 seconds
Gurobi run time: 60.02 seconds
Total run time: 62.44 seconds
